4 4 1 1 111111
15 2 1 3 4 2 2 3 7 4 5 2 2 3 4 3 3 1 4 2 5 4 3 3 1 3 3 7 4 1 2 1 6 3 4 3 1 1 2 1 4 3 2 1 7 4 3 2 1 6 4 5 3 1 3 3 3 4 6 2 1 6 3 3 2 3 4 4 4 2 2 7 3 1 2 1 5 4 3 2 1 3 3 4 
15 2 3 3 4 1 2 1 4 3 3 3 1 6 2 4 3 7 2 1 1 3 3 2 2 3 4 7 2 1 6 2 3 2 1 1 4 3 3 1 5 3 3 4 1 2 1 7 3 2 2 1 4 2 6 2 1 3 2 7 2 2 5 3 1 2 2 1 4 1 2 1 3 3 1 2 1 5 2 3 
15 2 3 6 4 7 2 3 7 4 2 2 2 3 4 1 2 2 5 3 2 2 1 5 4 5 2 1 1 2 5 2 2 4 3 2 2 3 4 4 1 3 1 1 2 2 3 2 2 3 5 4 3 2 2 3 4 7 2 2 5 4 6 2 3 7 4 4 3 2 4 3 1 4 6 2 1 5 4 1 
15 2 3 4 4 7 2 2 4 4 3 3 1 4 2 7 4 3 2 3 3 4 2 2 2 2 3 1 2 2 1 3 4 3 1 2 3 6 4 4 2 2 7 4 3 2 1 6 4 2 2 2 2 3 1 2 2 6 4 6 2 1 7 3 7 2 2 6 4 3 3 1 3 2 1 3 7 2 1 7 4 2 
0 3 1 5 6 
1 0 3 2 4 7 
1 1 3 3 9 14 
1 2 1 10 
1 1 3 8 10 11 
1 0 2 7 11 
1 0 2 7 11 
3 1 6 5 2 8 14 
2 7 4 1 12 
1 2 1 10 
3 9 3 4 1 12 
3 5 4 6 3 12 13 14 
3 10 8 11 0 
1 11 0 
3 2 11 7 0 
0 3 16 17 18 
1 15 2 21 22 
1 15 2 20 21 
1 15 2 22 28 
0 2 21 22 
1 17 3 24 25 26 
3 16 19 17 2 24 26 
3 19 16 18 2 23 24 
1 22 1 26 
3 22 21 20 1 27 
1 20 2 27 29 
3 21 20 23 2 27 29 
3 25 24 26 0 
1 18 1 29 
3 25 26 28 0 
0 3 31 43 44 
1 30 2 34 35 
0 3 34 35 36 
0 3 34 35 36 
3 32 31 33 2 37 39 
3 31 33 32 2 37 39 
2 32 33 2 37 38 
3 35 34 36 1 40 
1 36 1 40 
2 35 34 1 40 
3 38 37 39 2 41 42 
1 40 0 
1 40 0 
1 30 0 
1 30 0 
0 1 52 
0 2 47 53 
1 46 2 48 51 
1 47 2 49 56 
1 48 2 54 55 
0 2 52 53 
1 47 2 54 55 
2 50 45 1 55 
2 50 46 2 54 56 
3 51 49 53 2 57 58 
3 49 51 52 3 57 58 59 
2 48 53 2 57 58 
3 55 56 54 0 
3 56 55 54 0 
1 55 0 
